1 -1 2 0
1 3 -1 0
1 4 -5 0
1 4 -6 0
1 4 -2 0
1 -5 7 0
1 -5 -8 0
1 9 10 0
1 9 -11 0
1 9 -12 0
1 2 13 0
1 -2 -11 0
1 -2 12 0
1 2 -1 0
1 -8 -3 0
1 14 15 0
1 14 -16 0
1 -14 1 0
1 12 -16 0
1 17 -6 0
1 17 12 0
1 -11 18 0
1 11 -19 0
1 -11 15 0
1 -13 -20 0
1 -13 19 0
1 21 22 0
1 -21 -23 0
1 21 12 0
1 -21 -24 0
1 -22 -17 0
1 22 11 0
1 -22 -4 0
1 -6 7 0
1 -6 17 0
1 6 12 0
1 -6 -24 0
1 -7 -13 0
1 7 -11 0
1 -7 -4 0
1 25 -10 0
1 25 -19 0
1 -23 26 0
1 23 21 0
1 27 26 0
1 -27 -28 0
1 -26 -27 0
1 -26 25 0
1 -26 -23 0
1 19 -25 0
1 -18 -29 0
1 18 -30 0
1 -15 -20 0
1 15 -31 0
1 -15 -32 0
1 -15 -14 0
1 20 33 0
1 20 34 0
1 33 10 0
1 35 16 0
1 -36 37 0
1 36 -8 0
1 -36 -9 0
1 -38 39 0
1 -38 34 0
1 38 40 0
1 -41 -35 0
1 -37 38 0
1 37 42 0
1 -37 30 0
1 42 -20 0
1 42 15 0
1 -42 -30 0
1 34 -10 0
1 24 -29 0
1 24 -19 0
1 43 18 0
1 -43 -44 0
1 43 -19 0
1 -30 18 0
1 -30 37 0
1 -30 -44 0
1 -44 43 0
1 39 29 0
1 -39 -30 0
1 45 -43 0
1 -45 29 0
1 -45 24 0
1 -40 38 0
1 -40 -24 0
